************************************************************************
file with basedata            : md346_.bas
initial value random generator: 1464476030
************************************************************************
projects                      :  1
jobs (incl. supersource/sink ):  22
horizon                       :  154
RESOURCES
  - renewable                 :  2   R
  - nonrenewable              :  2   N
  - doubly constrained        :  0   D
************************************************************************
PROJECT INFORMATION:
pronr.  #jobs rel.date duedate tardcost  MPM-Time
    1     20      0       21        9       21
************************************************************************
PRECEDENCE RELATIONS:
jobnr.    #modes  #successors   successors
   1        1          3           2   3   4
   2        3          3           8  13  17
   3        3          2          15  20
   4        3          2           5  18
   5        3          3           6   7  12
   6        3          3          13  14  17
   7        3          2          11  14
   8        3          3           9  10  12
   9        3          1          16
  10        3          3          14  18  21
  11        3          3          13  15  17
  12        3          2          15  19
  13        3          1          19
  14        3          1          20
  15        3          1          21
  16        3          2          18  21
  17        3          1          20
  18        3          1          19
  19        3          1          22
  20        3          1          22
  21        3          1          22
  22        1          0        
************************************************************************
REQUESTS/DURATIONS:
jobnr. mode duration  R 1  R 2  N 1  N 2
------------------------------------------------------------------------
  1      1     0       0    0    0    0
  2      1     5       6    0    0    7
         2     6       0    5    0    5
         3     7       4    0    0    1
  3      1     2       0    7    8    0
         2     2       0    6    0   10
         3     5       8    0    0    7
  4      1     2       0    3    0    7
         2     3       5    0    6    0
         3     6       3    0    4    0
  5      1     4       4    0    0    7
         2     5       4    0    0    6
         3     7       3    0    7    0
  6      1     3       0    5    0    6
         2     6       0    5    0    5
         3    10       0    4    2    0
  7      1     1       0    6    0    6
         2     7       0    5    6    0
         3     9       0    2    6    0
  8      1     3       5    0    0    9
         2     3       6    0    0    8
         3     7       0    2    0    6
  9      1     4       0    7   10    0
         2     4       0    8    0    2
         3     6       8    0   10    0
 10      1     2       7    0    0    9
         2     5       6    0    0    9
         3     5       0    5    3    0
 11      1     3      10    0    4    0
         2     4       9    0    0    7
         3     9       9    0    3    0
 12      1     4       9    0    6    0
         2     5       0    7    6    0
         3     8       0    7    0    5
 13      1     2       9    0    9    0
         2     7       8    0    0    6
         3     7       0    2    9    0
 14      1     6      10    0    8    0
         2     9       9    0    6    0
         3     9       0    9    0    5
 15      1     2       8    0    0    3
         2    10       0    5    0    3
         3    10       7    0    5    0
 16      1     2       6    0    9    0
         2     3       4    0    0    5
         3     6       0    2    8    0
 17      1     2       0   10    6    0
         2     7       1    0    0    4
         3     9       0    7    4    0
 18      1     6       9    0    0    7
         2     9       0    5    0    7
         3     9       8    0    6    0
 19      1     1       6    0    9    0
         2     7       5    0    0    7
         3     9       5    0    0    2
 20      1     5       0    9    6    0
         2     6       0    9    0    4
         3    10       0    8    6    0
 21      1     4       1    0    0    6
         2     4       0    4    0    5
         3     6       0    3    0    2
 22      1     0       0    0    0    0
************************************************************************
RESOURCEAVAILABILITIES:
  R 1  R 2  N 1  N 2
   23   15  110  122
************************************************************************
MAXIMAL LAGS:
from  to  type  delay
    1   22   ES      0
    1    2   ES      0
    2   22   ES      0
    1    3   ES      0
    3   22   ES      0
    1    4   ES      0
    4   22   ES      0
    1    5   ES      0
    5   22   ES      0
    1    6   ES      0
    6   22   ES      0
    1    7   ES      0
    7   22   ES      0
    1    8   ES      0
    8   22   ES      0
    1    9   ES      0
    9   22   ES      0
    1   10   ES      0
   10   22   ES      0
    1   11   ES      0
   11   22   ES      0
    1   12   ES      0
   12   22   ES      0
    1   13   ES      0
   13   22   ES      0
    1   14   ES      0
   14   22   ES      0
    1   15   ES      0
   15   22   ES      0
    1   16   ES      0
   16   22   ES      0
    1   17   ES      0
   17   22   ES      0
    1   18   ES      0
   18   22   ES      0
    1   19   ES      0
   19   22   ES      0
    1   20   ES      0
   20   22   ES      0
    1   21   ES      0
   21   22   ES      0
    1   22   ES      0
    2    8   SS     -4
    2    8   SE     -2
    2    8   ES      1
    2    8   EE    -10
    2   13   SS      4
    2   13   SE     -1
    2   13   ES    -10
    2   13   EE      3
    2   17   SS     -3
    2   17   SE     11
    2   17   ES     -3
    2   17   EE      1
    3   15   SS    -12
    3   15   SE    -12
    3   15   ES     -3
    3   15   EE     -2
    3   20   SS     -7
    3   20   SE     10
    3   20   ES    -10
    3   20   EE     -8
    4    5   SS      4
    4    5   SE      7
    4    5   ES      7
    4    5   EE     -9
    4   18   SS     -1
    4   18   SE     -9
    4   18   ES     -9
    4   18   EE     -4
    5    6   SS     12
    5    6   SE     -2
    5    6   ES     -2
    5    6   EE     -9
    5    7   SS     -7
    5    7   SE      6
    5    7   ES     -6
    5    7   EE      6
    5   12   SS    -10
    5   12   SE     -5
    5   12   ES    -11
    5   12   EE     -4
    6   13   SS     -3
    6   13   SE     12
    6   13   ES      5
    6   13   EE     12
    6   14   SS      5
    6   14   SE    -10
    6   14   ES     10
    6   14   EE      5
    6   17   SS      6
    6   17   SE     10
    6   17   ES      5
    6   17   EE     -3
    7   11   SS      5
    7   11   SE      9
    7   11   ES     -3
    7   11   EE     -9
    7   14   SS      0
    7   14   SE     12
    7   14   ES    -11
    7   14   EE     -3
    8    9   SS      1
    8    9   SE    -10
    8    9   ES      9
    8    9   EE     -2
    8   10   SS     -4
    8   10   SE     11
    8   10   ES    -11
    8   10   EE     -8
    8   12   SS    -10
    8   12   SE     -9
    8   12   ES      6
    8   12   EE    -12
    9   16   SS     -9
    9   16   SE      3
    9   16   ES    -11
    9   16   EE      3
   10   14   SS     -1
   10   14   SE      0
   10   14   ES      5
   10   14   EE     -9
   10   18   SS     -4
   10   18   SE     -7
   10   18   ES      6
   10   18   EE      5
   10   21   SS     -5
   10   21   SE    -10
   10   21   ES     -2
   10   21   EE     -7
   11   13   SS     -7
   11   13   SE      8
   11   13   ES      6
   11   13   EE     10
   11   15   SS     -9
   11   15   SE      8
   11   15   ES    -12
   11   15   EE      3
   11   17   SS     -6
   11   17   SE     11
   11   17   ES     10
   11   17   EE     -8
   12   15   SS     -7
   12   15   SE     11
   12   15   ES      9
   12   15   EE      4
   12   19   SS     -5
   12   19   SE      1
   12   19   ES    -12
   12   19   EE      9
   13   19   SS      4
   13   19   SE     -4
   13   19   ES      6
   13   19   EE     11
   14   20   SS     12
   14   20   SE     -6
   14   20   ES      3
   14   20   EE      5
   15   21   SS     -5
   15   21   SE    -11
   15   21   ES      1
   15   21   EE     -6
   16   18   SS      7
   16   18   SE      9
   18   16   SE      0
   16   18   ES      0
   16   18   EE     -6
   16   21   SS      4
   16   21   SE     -3
   16   21   ES     -1
   16   21   EE     -8
   17   20   SS      0
   17   20   SE      6
   17   20   ES      1
   17   20   EE      6
   18   19   SS     -3
   18   19   SE     -4
   18   19   ES     -5
   18   19   EE      7
************************************************************************
